%NProcShared=2
%Chk=checkpoint.chk
#n CCSD/6-31G SP formcheck Density=CC

Title

0 1
O                 -2.40740748    1.14197529    0.00000000
H                 -1.44740748    1.14197529    0.00000000
H                 -2.72786207    2.04691112    0.00000000

