%nprocshared=2
%Chk=checkpoint.chk
# ccsd/6-31g  density=cc formcheck sp

Title

0 1
 O                 -3.03422343   -0.50121090   -0.88980503
 H                 -2.07422343   -0.50121090   -0.88980503
 H                 -3.35467801    0.40372493   -0.88980503


