%mem=25GB
%NProcShared=26
%Chk=checkpoint.chk
#n hf/6-31g sp density=cc formcheck int=acc2e=12

Title Card Required

0 1
O                 -2.40740748    1.14197529    0.00000000
H                 -1.44740748    1.14197529    0.00000000
H                 -2.72786207    2.04691112    0.00000000


