%Chk=checkpoint.chk
%mem=25GB
%NProcShared=56
#n HF/6-31G SP formcheck Density=CC int=acc2e=12

Title

0 1
O                 -3.53643480    0.26019927   -2.28346449
H                 -2.57643480    0.26019927   -2.28346449
H                 -3.85688939    1.16513510   -2.28346449

